
Gurobi 9.0.3 (win64) logging started Sat Feb  5 17:52:37 2022

Changed value of parameter LogFile to logs\CRVRP_5-2-7-100_3_1.LOG
   Prev: logs\CRVRP_5-2-7-100_3_0.LOG  Default: 
Changed value of parameter Seed to 1800700585
   Prev: 554538414  Min: 0  Max: 2000000000  Default: 0
Parameter Threads unchanged
   Value: 2  Min: 0  Max: 1024  Default: 0
Parameter TimeLimit unchanged
   Value: 60.0  Min: 0.0  Max: inf  Default: inf
Parameter Symmetry unchanged
   Value: 2  Min: -1  Max: 2  Default: -1
Parameter Cuts unchanged
   Value: 2  Min: -1  Max: 3  Default: -1
Parameter PreDepRow unchanged
   Value: 1  Min: -1  Max: 1  Default: -1
Parameter ScaleFlag unchanged
   Value: 1  Min: -1  Max: 3  Default: -1
Parameter NormAdjust unchanged
   Value: 0  Min: -1  Max: 3  Default: -1
Gurobi Optimizer version 9.0.3 build v9.0.3rc0 (win64)
Optimize a model with 1001 rows, 810 columns and 4006 nonzeros
Model fingerprint: 0x0eed8711
Variable types: 32 continuous, 778 integer (522 binary)
Coefficient statistics:
  Matrix range     [1e+00, 1e+06]
  Objective range  [1e+00, 1e+00]
  Bounds range     [1e+00, 1e+04]
  RHS range        [1e+00, 1e+06]
Presolve removed 617 rows and 515 columns
Presolve time: 0.02s
Presolved: 384 rows, 295 columns, 2048 nonzeros
Variable types: 15 continuous, 280 integer (230 binary)
Found heuristic solution: objective 1870.3317726

Root relaxation: objective 4.231442e+02, 170 iterations, 0.00 seconds

    Nodes    |    Current Node    |     Objective Bounds      |     Work
 Expl Unexpl |  Obj  Depth IntInf | Incumbent    BestBd   Gap | It/Node Time

     0     0  423.14425    0   17 1870.33177  423.14425  77.4%     -    0s
H    0     0                    1557.2297414  423.14425  72.8%     -    0s
H    0     0                    1052.2297414  423.14425  59.8%     -    0s
     0     0  423.14425    0   46 1052.22974  423.14425  59.8%     -    0s
     0     0  423.14425    0   43 1052.22974  423.14425  59.8%     -    0s
     0     0  423.14425    0   15 1052.22974  423.14425  59.8%     -    0s
H    0     0                     727.9244152  423.14425  41.9%     -    0s
     0     0  423.14425    0   29  727.92442  423.14425  41.9%     -    0s
     0     0  423.14425    0   24  727.92442  423.14425  41.9%     -    0s
     0     0  423.14425    0   28  727.92442  423.14425  41.9%     -    0s
     0     0  423.14425    0   16  727.92442  423.14425  41.9%     -    0s
     0     0  423.14425    0   16  727.92442  423.14425  41.9%     -    0s
H    0     0                     719.8922838  423.14425  41.2%     -    0s
     0     2  423.14425    0   16  719.89228  423.14425  41.2%     -    0s
H   35    81                     599.1768515  423.14425  29.4%  51.0    0s
H   96    96                     514.3281879  423.14425  17.7%  25.9    0s
*  165   128              17     488.2563680  423.14425  13.3%  28.0    0s
H  374   118                     480.3974544  423.14425  11.9%  26.6    0s
H  394   126                     454.3256345  423.14425  6.86%  26.5    0s
*  630   100              16     441.3571560  423.14425  4.13%  25.0    1s
H  752   108                     441.3571559  423.14425  4.13%  25.4    1s
* 1087    69              17     435.8482335  423.85232  2.75%  26.9    2s

Cutting planes:
  Learned: 8
  Gomory: 11
  Cover: 10
  Implied bound: 33
  Projected implied bound: 2
  MIR: 82
  StrongCG: 3
  Flow cover: 200
  GUB cover: 1
  Inf proof: 3
  Zero half: 7
  RLT: 108
  Relax-and-lift: 63

Explored 1200 nodes (31878 simplex iterations) in 2.26 seconds
Thread count was 2 (of 8 available processors)

Solution count 10: 435.848 441.357 454.326 ... 1052.23

Optimal solution found (tolerance 1.00e-04)
Best objective 4.358482335467e+02, best bound 4.358482335467e+02, gap 0.0000%
Discarded solution information
